100
32
2
20
13
22
12
1
3
14
21
25
11
27
3
18
1
29
10
9
1
31
1
19
27
28
6
25
11
17
4
19
20
5
21
16
17
1
1
11
6
23
9
23
1
18
25
23
9
11
21
4
6
30
4
5
7
1
22
20
16
22
23
21
3
12
26
2
3
9
7
6
5
15
16
2
1
21
23
32
1
2
11
14
24
16
8
23
3
16
1
10
3
4
8
15
22
16
10
21
11
13